
Gurobi 6.5.2 (linux64) logging started Wed Mar 15 12:52:27 2017


Gurobi 6.5.2 (linux64) logging started Wed Mar 15 12:52:27 2017

Optimize a model with 201 rows, 2575 columns and 5405 nonzeros
Coefficient statistics:
  Matrix range    [1e+00, 2e+00]
  Objective range [1e+00, 1e+02]
  Bounds range    [1e+00, 1e+00]
  RHS range       [1e+00, 1e+00]
Presolve removed 55 rows and 8 columns
Presolve time: 0.01s
Presolved: 146 rows, 2567 columns, 5189 nonzeros
Variable types: 0 continuous, 2567 integer (2567 binary)

Root relaxation: objective 8.416250e+02, 139 iterations, 0.00 seconds

    Nodes    |    Current Node    |     Objective Bounds      |     Work
 Expl Unexpl |  Obj  Depth IntInf | Incumbent    BestBd   Gap | It/Node Time

     0     0  841.62500    0   63          -  841.62500      -     -    0s
H    0     0                    2814.0000000  841.62500  70.1%     -    0s
     0     0  888.65000    0   62 2814.00000  888.65000  68.4%     -    0s
     0     0  895.05417    0   50 2814.00000  895.05417  68.2%     -    0s
     0     0  895.28750    0   51 2814.00000  895.28750  68.2%     -    0s
     0     0  898.98264    0   63 2814.00000  898.98264  68.1%     -    0s
     0     0  899.37500    0   42 2814.00000  899.37500  68.0%     -    0s
     0     0  899.87500    0   44 2814.00000  899.87500  68.0%     -    0s
     0     0  899.87500    0   44 2814.00000  899.87500  68.0%     -    0s
     0     2  899.87500    0   44 2814.00000  899.87500  68.0%     -    1s
  1251  1095  928.40000   28    9 2814.00000  911.13206  67.6%   6.0    5s
* 4402  2789             260    1780.0000000  911.77778  48.8%   6.2    7s
H 4817  3131                    1770.0000000  911.77778  48.5%   6.3    7s
* 5534  3193             157    1204.0000000  911.77778  24.3%   6.2    8s
  7121  4389  946.00000   62    - 1204.00000  912.38843  24.2%   6.2   10s

Cutting planes:
  Gomory: 46
  Cover: 100
  MIR: 6
  Flow cover: 12
  Zero half: 14
  Lazy constraints: 726

Explored 7512 nodes (46325 simplex iterations) in 10.02 seconds
Thread count was 8 (of 8 available processors)

Time limit reached
Best objective 1.204000000000e+03, best bound 9.130000000000e+02, gap 24.1694%
